GLPSOL--GLPK LP/MIP Solver 5.0
Parameter(s) specified in the command line:
 --lp ../modeles/4_44.lp --log 4_44.log
Reading problem data from '../modeles/4_44.lp'...
193 rows, 360 columns, 1244 non-zeros
176 integer variables, all of which are binary
563 lines were read
GLPK Integer Optimizer 5.0
193 rows, 360 columns, 1244 non-zeros
176 integer variables, all of which are binary
Preprocessing...
168 constraint coefficient(s) were reduced
193 rows, 356 columns, 1240 non-zeros
176 integer variables, all of which are binary
Scaling...
 A: min|aij| =  8.264e-03  max|aij| =  4.000e+00  ratio =  4.840e+02
GM: min|aij| =  2.132e-01  max|aij| =  4.690e+00  ratio =  2.200e+01
EQ: min|aij| =  4.545e-02  max|aij| =  1.000e+00  ratio =  2.200e+01
2N: min|aij| =  3.125e-02  max|aij| =  1.675e+00  ratio =  5.359e+01
Constructing initial basis...
Size of triangular part is 193
Solving LP relaxation...
GLPK Simplex Optimizer 5.0
193 rows, 356 columns, 1240 non-zeros
      0: obj =   8.000000000e+00 inf =   1.950e+01 (9)
     35: obj =  -5.295950156e-02 inf =   0.000e+00 (0)
*   102: obj =  -1.991735537e+00 inf =   4.591e-15 (0)
OPTIMAL LP SOLUTION FOUND
Integer optimization begins...
Long-step dual simplex will be used
+   102: mip =     not found yet >=              -inf        (1; 0)
+   103: >>>>>  -1.991735537e+00 >=  -1.991735537e+00   0.0% (2; 0)
+   103: mip =  -1.991735537e+00 >=     tree is empty   0.0% (0; 3)
INTEGER OPTIMAL SOLUTION FOUND
Time used:   0.0 secs
Memory used: 0.5 Mb (576492 bytes)
